Minimize
x0 + x1 + x2 + x3 + x8 + x9 + x10 + x11 + x20 + x21 + x22 + x23 + x28 + x29 + x30 + x31 + x36 + x37 + x38 + x39 + x44 + x45 + x46 + x47 + x52 + x53 + x54 + x55 + x60 + x61 + x62 + x63 + x68 + x69 + x70 + x71 + x76 + x77 + x78 + x79 + x84 + x85 + x86 + x87 + x92 + x93 + x94 + x95 + x100 + x101 + x102 + x103 + x108 + x109 + x110 + x111 + x116 + x117 + x118 + x119 + x124 + x125 + x126 + x127 + x132 + x133 + x134 + x135 + x140 + x141 + x142 + x143 + 
Subject To
\\Clefia S0
\\M_0
x0 + x1 + x2 + x3 + x16 + x17 + x18 + x19 - 5 d0 >= 0
d0 - x0 >= 0
d0 - x1 >= 0
d0 - x2 >= 0
d0 - x3 >= 0
d0 - x16 >= 0
d0 - x17 >= 0
d0 - x18 >= 0
d0 - x19 >= 0
\\XOR
x4 + x16 + x20 - 2 d1 >= 0
d1 - x4 >= 0
d1 - x16 >= 0
d1 - x20 >= 0
\\XOR
x5 + x17 + x21 - 2 d2 >= 0
d2 - x5 >= 0
d2 - x17 >= 0
d2 - x21 >= 0
\\XOR
x6 + x18 + x22 - 2 d3 >= 0
d3 - x6 >= 0
d3 - x18 >= 0
d3 - x22 >= 0
\\XOR
x7 + x19 + x23 - 2 d4 >= 0
d4 - x7 >= 0
d4 - x19 >= 0
d4 - x23 >= 0
\\Clefia S1
\\M_1
x8 + x9 + x10 + x11 + x24 + x25 + x26 + x27 - 5 d5 >= 0
d5 - x8 >= 0
d5 - x9 >= 0
d5 - x10 >= 0
d5 - x11 >= 0
d5 - x24 >= 0
d5 - x25 >= 0
d5 - x26 >= 0
d5 - x27 >= 0
\\XOR
x12 + x24 + x28 - 2 d6 >= 0
d6 - x12 >= 0
d6 - x24 >= 0
d6 - x28 >= 0
\\XOR
x13 + x25 + x29 - 2 d7 >= 0
d7 - x13 >= 0
d7 - x25 >= 0
d7 - x29 >= 0
\\XOR
x14 + x26 + x30 - 2 d8 >= 0
d8 - x14 >= 0
d8 - x26 >= 0
d8 - x30 >= 0
\\XOR
x15 + x27 + x31 - 2 d9 >= 0
d9 - x15 >= 0
d9 - x27 >= 0
d9 - x31 >= 0
\\Identity
\\Identity
\\Identity
\\Identity
\\Identity
\\Identity
\\Identity
\\Identity
\\Identity
\\Identity
\\Identity
\\Identity
\\Identity
\\Identity
\\Identity
\\Identity
\\Clefia S0
\\M_0
x20 + x21 + x22 + x23 + x32 + x33 + x34 + x35 - 5 d10 >= 0
d10 - x20 >= 0
d10 - x21 >= 0
d10 - x22 >= 0
d10 - x23 >= 0
d10 - x32 >= 0
d10 - x33 >= 0
d10 - x34 >= 0
d10 - x35 >= 0
\\XOR
x8 + x32 + x36 - 2 d11 >= 0
d11 - x8 >= 0
d11 - x32 >= 0
d11 - x36 >= 0
\\XOR
x9 + x33 + x37 - 2 d12 >= 0
d12 - x9 >= 0
d12 - x33 >= 0
d12 - x37 >= 0
\\XOR
x10 + x34 + x38 - 2 d13 >= 0
d13 - x10 >= 0
d13 - x34 >= 0
d13 - x38 >= 0
\\XOR
x11 + x35 + x39 - 2 d14 >= 0
d14 - x11 >= 0
d14 - x35 >= 0
d14 - x39 >= 0
\\Clefia S1
\\M_1
x28 + x29 + x30 + x31 + x40 + x41 + x42 + x43 - 5 d15 >= 0
d15 - x28 >= 0
d15 - x29 >= 0
d15 - x30 >= 0
d15 - x31 >= 0
d15 - x40 >= 0
d15 - x41 >= 0
d15 - x42 >= 0
d15 - x43 >= 0
\\XOR
x0 + x40 + x44 - 2 d16 >= 0
d16 - x0 >= 0
d16 - x40 >= 0
d16 - x44 >= 0
\\XOR
x1 + x41 + x45 - 2 d17 >= 0
d17 - x1 >= 0
d17 - x41 >= 0
d17 - x45 >= 0
\\XOR
x2 + x42 + x46 - 2 d18 >= 0
d18 - x2 >= 0
d18 - x42 >= 0
d18 - x46 >= 0
\\XOR
x3 + x43 + x47 - 2 d19 >= 0
d19 - x3 >= 0
d19 - x43 >= 0
d19 - x47 >= 0
\\Identity
\\Identity
\\Identity
\\Identity
\\Identity
\\Identity
\\Identity
\\Identity
\\Identity
\\Identity
\\Identity
\\Identity
\\Identity
\\Identity
\\Identity
\\Identity
\\Clefia S0
\\M_0
x36 + x37 + x38 + x39 + x48 + x49 + x50 + x51 - 5 d20 >= 0
d20 - x36 >= 0
d20 - x37 >= 0
d20 - x38 >= 0
d20 - x39 >= 0
d20 - x48 >= 0
d20 - x49 >= 0
d20 - x50 >= 0
d20 - x51 >= 0
\\XOR
x28 + x48 + x52 - 2 d21 >= 0
d21 - x28 >= 0
d21 - x48 >= 0
d21 - x52 >= 0
\\XOR
x29 + x49 + x53 - 2 d22 >= 0
d22 - x29 >= 0
d22 - x49 >= 0
d22 - x53 >= 0
\\XOR
x30 + x50 + x54 - 2 d23 >= 0
d23 - x30 >= 0
d23 - x50 >= 0
d23 - x54 >= 0
\\XOR
x31 + x51 + x55 - 2 d24 >= 0
d24 - x31 >= 0
d24 - x51 >= 0
d24 - x55 >= 0
\\Clefia S1
\\M_1
x44 + x45 + x46 + x47 + x56 + x57 + x58 + x59 - 5 d25 >= 0
d25 - x44 >= 0
d25 - x45 >= 0
d25 - x46 >= 0
d25 - x47 >= 0
d25 - x56 >= 0
d25 - x57 >= 0
d25 - x58 >= 0
d25 - x59 >= 0
\\XOR
x20 + x56 + x60 - 2 d26 >= 0
d26 - x20 >= 0
d26 - x56 >= 0
d26 - x60 >= 0
\\XOR
x21 + x57 + x61 - 2 d27 >= 0
d27 - x21 >= 0
d27 - x57 >= 0
d27 - x61 >= 0
\\XOR
x22 + x58 + x62 - 2 d28 >= 0
d28 - x22 >= 0
d28 - x58 >= 0
d28 - x62 >= 0
\\XOR
x23 + x59 + x63 - 2 d29 >= 0
d29 - x23 >= 0
d29 - x59 >= 0
d29 - x63 >= 0
\\Identity
\\Identity
\\Identity
\\Identity
\\Identity
\\Identity
\\Identity
\\Identity
\\Identity
\\Identity
\\Identity
\\Identity
\\Identity
\\Identity
\\Identity
\\Identity
\\Clefia S0
\\M_0
x52 + x53 + x54 + x55 + x64 + x65 + x66 + x67 - 5 d30 >= 0
d30 - x52 >= 0
d30 - x53 >= 0
d30 - x54 >= 0
d30 - x55 >= 0
d30 - x64 >= 0
d30 - x65 >= 0
d30 - x66 >= 0
d30 - x67 >= 0
\\XOR
x44 + x64 + x68 - 2 d31 >= 0
d31 - x44 >= 0
d31 - x64 >= 0
d31 - x68 >= 0
\\XOR
x45 + x65 + x69 - 2 d32 >= 0
d32 - x45 >= 0
d32 - x65 >= 0
d32 - x69 >= 0
\\XOR
x46 + x66 + x70 - 2 d33 >= 0
d33 - x46 >= 0
d33 - x66 >= 0
d33 - x70 >= 0
\\XOR
x47 + x67 + x71 - 2 d34 >= 0
d34 - x47 >= 0
d34 - x67 >= 0
d34 - x71 >= 0
\\Clefia S1
\\M_1
x60 + x61 + x62 + x63 + x72 + x73 + x74 + x75 - 5 d35 >= 0
d35 - x60 >= 0
d35 - x61 >= 0
d35 - x62 >= 0
d35 - x63 >= 0
d35 - x72 >= 0
d35 - x73 >= 0
d35 - x74 >= 0
d35 - x75 >= 0
\\XOR
x36 + x72 + x76 - 2 d36 >= 0
d36 - x36 >= 0
d36 - x72 >= 0
d36 - x76 >= 0
\\XOR
x37 + x73 + x77 - 2 d37 >= 0
d37 - x37 >= 0
d37 - x73 >= 0
d37 - x77 >= 0
\\XOR
x38 + x74 + x78 - 2 d38 >= 0
d38 - x38 >= 0
d38 - x74 >= 0
d38 - x78 >= 0
\\XOR
x39 + x75 + x79 - 2 d39 >= 0
d39 - x39 >= 0
d39 - x75 >= 0
d39 - x79 >= 0
\\Identity
\\Identity
\\Identity
\\Identity
\\Identity
\\Identity
\\Identity
\\Identity
\\Identity
\\Identity
\\Identity
\\Identity
\\Identity
\\Identity
\\Identity
\\Identity
\\Clefia S0
\\M_0
x68 + x69 + x70 + x71 + x80 + x81 + x82 + x83 - 5 d40 >= 0
d40 - x68 >= 0
d40 - x69 >= 0
d40 - x70 >= 0
d40 - x71 >= 0
d40 - x80 >= 0
d40 - x81 >= 0
d40 - x82 >= 0
d40 - x83 >= 0
\\XOR
x60 + x80 + x84 - 2 d41 >= 0
d41 - x60 >= 0
d41 - x80 >= 0
d41 - x84 >= 0
\\XOR
x61 + x81 + x85 - 2 d42 >= 0
d42 - x61 >= 0
d42 - x81 >= 0
d42 - x85 >= 0
\\XOR
x62 + x82 + x86 - 2 d43 >= 0
d43 - x62 >= 0
d43 - x82 >= 0
d43 - x86 >= 0
\\XOR
x63 + x83 + x87 - 2 d44 >= 0
d44 - x63 >= 0
d44 - x83 >= 0
d44 - x87 >= 0
\\Clefia S1
\\M_1
x76 + x77 + x78 + x79 + x88 + x89 + x90 + x91 - 5 d45 >= 0
d45 - x76 >= 0
d45 - x77 >= 0
d45 - x78 >= 0
d45 - x79 >= 0
d45 - x88 >= 0
d45 - x89 >= 0
d45 - x90 >= 0
d45 - x91 >= 0
\\XOR
x52 + x88 + x92 - 2 d46 >= 0
d46 - x52 >= 0
d46 - x88 >= 0
d46 - x92 >= 0
\\XOR
x53 + x89 + x93 - 2 d47 >= 0
d47 - x53 >= 0
d47 - x89 >= 0
d47 - x93 >= 0
\\XOR
x54 + x90 + x94 - 2 d48 >= 0
d48 - x54 >= 0
d48 - x90 >= 0
d48 - x94 >= 0
\\XOR
x55 + x91 + x95 - 2 d49 >= 0
d49 - x55 >= 0
d49 - x91 >= 0
d49 - x95 >= 0
\\Identity
\\Identity
\\Identity
\\Identity
\\Identity
\\Identity
\\Identity
\\Identity
\\Identity
\\Identity
\\Identity
\\Identity
\\Identity
\\Identity
\\Identity
\\Identity
\\Clefia S0
\\M_0
x84 + x85 + x86 + x87 + x96 + x97 + x98 + x99 - 5 d50 >= 0
d50 - x84 >= 0
d50 - x85 >= 0
d50 - x86 >= 0
d50 - x87 >= 0
d50 - x96 >= 0
d50 - x97 >= 0
d50 - x98 >= 0
d50 - x99 >= 0
\\XOR
x76 + x96 + x100 - 2 d51 >= 0
d51 - x76 >= 0
d51 - x96 >= 0
d51 - x100 >= 0
\\XOR
x77 + x97 + x101 - 2 d52 >= 0
d52 - x77 >= 0
d52 - x97 >= 0
d52 - x101 >= 0
\\XOR
x78 + x98 + x102 - 2 d53 >= 0
d53 - x78 >= 0
d53 - x98 >= 0
d53 - x102 >= 0
\\XOR
x79 + x99 + x103 - 2 d54 >= 0
d54 - x79 >= 0
d54 - x99 >= 0
d54 - x103 >= 0
\\Clefia S1
\\M_1
x92 + x93 + x94 + x95 + x104 + x105 + x106 + x107 - 5 d55 >= 0
d55 - x92 >= 0
d55 - x93 >= 0
d55 - x94 >= 0
d55 - x95 >= 0
d55 - x104 >= 0
d55 - x105 >= 0
d55 - x106 >= 0
d55 - x107 >= 0
\\XOR
x68 + x104 + x108 - 2 d56 >= 0
d56 - x68 >= 0
d56 - x104 >= 0
d56 - x108 >= 0
\\XOR
x69 + x105 + x109 - 2 d57 >= 0
d57 - x69 >= 0
d57 - x105 >= 0
d57 - x109 >= 0
\\XOR
x70 + x106 + x110 - 2 d58 >= 0
d58 - x70 >= 0
d58 - x106 >= 0
d58 - x110 >= 0
\\XOR
x71 + x107 + x111 - 2 d59 >= 0
d59 - x71 >= 0
d59 - x107 >= 0
d59 - x111 >= 0
\\Identity
\\Identity
\\Identity
\\Identity
\\Identity
\\Identity
\\Identity
\\Identity
\\Identity
\\Identity
\\Identity
\\Identity
\\Identity
\\Identity
\\Identity
\\Identity
\\Clefia S0
\\M_0
x100 + x101 + x102 + x103 + x112 + x113 + x114 + x115 - 5 d60 >= 0
d60 - x100 >= 0
d60 - x101 >= 0
d60 - x102 >= 0
d60 - x103 >= 0
d60 - x112 >= 0
d60 - x113 >= 0
d60 - x114 >= 0
d60 - x115 >= 0
\\XOR
x92 + x112 + x116 - 2 d61 >= 0
d61 - x92 >= 0
d61 - x112 >= 0
d61 - x116 >= 0
\\XOR
x93 + x113 + x117 - 2 d62 >= 0
d62 - x93 >= 0
d62 - x113 >= 0
d62 - x117 >= 0
\\XOR
x94 + x114 + x118 - 2 d63 >= 0
d63 - x94 >= 0
d63 - x114 >= 0
d63 - x118 >= 0
\\XOR
x95 + x115 + x119 - 2 d64 >= 0
d64 - x95 >= 0
d64 - x115 >= 0
d64 - x119 >= 0
\\Clefia S1
\\M_1
x108 + x109 + x110 + x111 + x120 + x121 + x122 + x123 - 5 d65 >= 0
d65 - x108 >= 0
d65 - x109 >= 0
d65 - x110 >= 0
d65 - x111 >= 0
d65 - x120 >= 0
d65 - x121 >= 0
d65 - x122 >= 0
d65 - x123 >= 0
\\XOR
x84 + x120 + x124 - 2 d66 >= 0
d66 - x84 >= 0
d66 - x120 >= 0
d66 - x124 >= 0
\\XOR
x85 + x121 + x125 - 2 d67 >= 0
d67 - x85 >= 0
d67 - x121 >= 0
d67 - x125 >= 0
\\XOR
x86 + x122 + x126 - 2 d68 >= 0
d68 - x86 >= 0
d68 - x122 >= 0
d68 - x126 >= 0
\\XOR
x87 + x123 + x127 - 2 d69 >= 0
d69 - x87 >= 0
d69 - x123 >= 0
d69 - x127 >= 0
\\Identity
\\Identity
\\Identity
\\Identity
\\Identity
\\Identity
\\Identity
\\Identity
\\Identity
\\Identity
\\Identity
\\Identity
\\Identity
\\Identity
\\Identity
\\Identity
\\Clefia S0
\\M_0
x116 + x117 + x118 + x119 + x128 + x129 + x130 + x131 - 5 d70 >= 0
d70 - x116 >= 0
d70 - x117 >= 0
d70 - x118 >= 0
d70 - x119 >= 0
d70 - x128 >= 0
d70 - x129 >= 0
d70 - x130 >= 0
d70 - x131 >= 0
\\XOR
x108 + x128 + x132 - 2 d71 >= 0
d71 - x108 >= 0
d71 - x128 >= 0
d71 - x132 >= 0
\\XOR
x109 + x129 + x133 - 2 d72 >= 0
d72 - x109 >= 0
d72 - x129 >= 0
d72 - x133 >= 0
\\XOR
x110 + x130 + x134 - 2 d73 >= 0
d73 - x110 >= 0
d73 - x130 >= 0
d73 - x134 >= 0
\\XOR
x111 + x131 + x135 - 2 d74 >= 0
d74 - x111 >= 0
d74 - x131 >= 0
d74 - x135 >= 0
\\Clefia S1
\\M_1
x124 + x125 + x126 + x127 + x136 + x137 + x138 + x139 - 5 d75 >= 0
d75 - x124 >= 0
d75 - x125 >= 0
d75 - x126 >= 0
d75 - x127 >= 0
d75 - x136 >= 0
d75 - x137 >= 0
d75 - x138 >= 0
d75 - x139 >= 0
\\XOR
x100 + x136 + x140 - 2 d76 >= 0
d76 - x100 >= 0
d76 - x136 >= 0
d76 - x140 >= 0
\\XOR
x101 + x137 + x141 - 2 d77 >= 0
d77 - x101 >= 0
d77 - x137 >= 0
d77 - x141 >= 0
\\XOR
x102 + x138 + x142 - 2 d78 >= 0
d78 - x102 >= 0
d78 - x138 >= 0
d78 - x142 >= 0
\\XOR
x103 + x139 + x143 - 2 d79 >= 0
d79 - x103 >= 0
d79 - x139 >= 0
d79 - x143 >= 0
\\Identity
\\Identity
\\Identity
\\Identity
\\Identity
\\Identity
\\Identity
\\Identity
\\Identity
\\Identity
\\Identity
\\Identity
\\Identity
\\Identity
\\Identity
\\Identity
\\Clefia S0
\\M_0
x132 + x133 + x134 + x135 + x144 + x145 + x146 + x147 - 5 d80 >= 0
d80 - x132 >= 0
d80 - x133 >= 0
d80 - x134 >= 0
d80 - x135 >= 0
d80 - x144 >= 0
d80 - x145 >= 0
d80 - x146 >= 0
d80 - x147 >= 0
\\XOR
x124 + x144 + x148 - 2 d81 >= 0
d81 - x124 >= 0
d81 - x144 >= 0
d81 - x148 >= 0
\\XOR
x125 + x145 + x149 - 2 d82 >= 0
d82 - x125 >= 0
d82 - x145 >= 0
d82 - x149 >= 0
\\XOR
x126 + x146 + x150 - 2 d83 >= 0
d83 - x126 >= 0
d83 - x146 >= 0
d83 - x150 >= 0
\\XOR
x127 + x147 + x151 - 2 d84 >= 0
d84 - x127 >= 0
d84 - x147 >= 0
d84 - x151 >= 0
\\Clefia S1
\\M_1
x140 + x141 + x142 + x143 + x152 + x153 + x154 + x155 - 5 d85 >= 0
d85 - x140 >= 0
d85 - x141 >= 0
d85 - x142 >= 0
d85 - x143 >= 0
d85 - x152 >= 0
d85 - x153 >= 0
d85 - x154 >= 0
d85 - x155 >= 0
\\XOR
x116 + x152 + x156 - 2 d86 >= 0
d86 - x116 >= 0
d86 - x152 >= 0
d86 - x156 >= 0
\\XOR
x117 + x153 + x157 - 2 d87 >= 0
d87 - x117 >= 0
d87 - x153 >= 0
d87 - x157 >= 0
\\XOR
x118 + x154 + x158 - 2 d88 >= 0
d88 - x118 >= 0
d88 - x154 >= 0
d88 - x158 >= 0
\\XOR
x119 + x155 + x159 - 2 d89 >= 0
d89 - x119 >= 0
d89 - x155 >= 0
d89 - x159 >= 0
\\Identity
\\Identity
\\Identity
\\Identity
\\Identity
\\Identity
\\Identity
\\Identity
\\Identity
\\Identity
\\Identity
\\Identity
\\Identity
\\Identity
\\Identity
\\Identity
\\Identity
\\Identity
\\Identity
\\Identity
\\Identity
\\Identity
\\Identity
\\Identity
\\Identity
\\Identity
\\Identity
\\Identity
\\Identity
\\Identity
\\Identity
\\Identity
x0 + x1 + x2 + x3 + x4 + x5 + x6 + x7 + x8 + x9 + x10 + x11 + x12 + x13 + x14 + x15 >= 1

Binary
d0
d1
d2
d3
d4
d5
d6
d7
d8
d9
d10
d11
d12
d13
d14
d15
d16
d17
d18
d19
d20
d21
d22
d23
d24
d25
d26
d27
d28
d29
d30
d31
d32
d33
d34
d35
d36
d37
d38
d39
d40
d41
d42
d43
d44
d45
d46
d47
d48
d49
d50
d51
d52
d53
d54
d55
d56
d57
d58
d59
d60
d61
d62
d63
d64
d65
d66
d67
d68
d69
d70
d71
d72
d73
d74
d75
d76
d77
d78
d79
d80
d81
d82
d83
d84
d85
d86
d87
d88
d89
x0
x1
x2
x3
x4
x5
x6
x7
x8
x9
x10
x11
x12
x13
x14
x15
x16
x17
x18
x19
x20
x21
x22
x23
x24
x25
x26
x27
x28
x29
x30
x31
x32
x33
x34
x35
x36
x37
x38
x39
x40
x41
x42
x43
x44
x45
x46
x47
x48
x49
x50
x51
x52
x53
x54
x55
x56
x57
x58
x59
x60
x61
x62
x63
x64
x65
x66
x67
x68
x69
x70
x71
x72
x73
x74
x75
x76
x77
x78
x79
x80
x81
x82
x83
x84
x85
x86
x87
x88
x89
x90
x91
x92
x93
x94
x95
x96
x97
x98
x99
x100
x101
x102
x103
x104
x105
x106
x107
x108
x109
x110
x111
x112
x113
x114
x115
x116
x117
x118
x119
x120
x121
x122
x123
x124
x125
x126
x127
x128
x129
x130
x131
x132
x133
x134
x135
x136
x137
x138
x139
x140
x141
x142
x143
x144
x145
x146
x147
x148
x149
x150
x151
x152
x153
x154
x155
x156
x157
x158
x159
End